SCIP Status        : solving was interrupted [time limit reached]
Total Time         :    3600.00
  solving          :    3600.00
  presolving       :       0.30 (included in solving)
  reading          :       0.00
  copying          :       0.68 (20 #copies) (minimal 0.00, maximal 0.08, average 0.03)
Original Problem   :
  Problem name     : bbbenchmark/g05_80.3.cut
  Variables        : 81 (80 binary, 0 integer, 0 implicit integer, 1 continuous)
  Constraints      : 1 initial, 1 maximal
  Objective        : minimize, 1 non-zeros (abs.min = 1, abs.max = 1)
Presolved Problem  :
  Problem name     : t_bbbenchmark/g05_80.3.cut
  Variables        : 1612 (80 binary, 0 integer, 1530 implicit integer, 2 continuous)
  Constraints      : 1534 initial, 7628 maximal
  Objective        : minimize, 1 non-zeros (abs.min = 1, abs.max = 1)
  Nonzeros         : 6307 constraint, 162 clique table
Presolvers         :   ExecTime  SetupTime  Calls  FixedVars   AggrVars   ChgTypes  ChgBounds   AddHoles    DelCons    AddCons   ChgSides   ChgCoefs
  boundshift       :       0.00       0.00      0          0          0          0          0          0          0          0          0          0
  convertinttobin  :       0.00       0.00      0          0          0          0          0          0          0          0          0          0
  domcol           :       0.00       0.00      1          0          0          0          0          0          0          0          0          0
  dualagg          :       0.00       0.00      0          0          0          0          0          0          0          0          0          0
  dualcomp         :       0.00       0.00      1          0          0          0          0          0          0          0          0          0
  dualinfer        :       0.00       0.00      0          0          0          0          0          0          0          0          0          0
  dualsparsify     :       0.00       0.00      1          0          0          0          0          0          0          0          0          0
  gateextraction   :       0.00       0.00      0          0          0          0          0          0          0          0          0          0
  implics          :       0.00       0.00      2          0          0          0          0          0          0          0          0          0
  inttobinary      :       0.00       0.00      0          0          0          0          0          0          0          0          0          0
  qpkktref         :       0.00       0.00      0          0          0          0          0          0          0          0          0          0
  redvub           :       0.00       0.00      0          0          0          0          0          0          0          0          0          0
  sparsify         :       0.00       0.00      1          0          0          0          0          0          0          0          0          0
  stuffing         :       0.00       0.00      0          0          0          0          0          0          0          0          0          0
  trivial          :       0.00       0.00      4          0          0          0          0          0          0          0          0          0
  tworowbnd        :       0.00       0.00      0          0          0          0          0          0          0          0          0          0
  dualfix          :       0.00       0.00      4          0          0          0          0          0          0          0          0          0
  genvbounds       :       0.00       0.00      0          0          0          0          0          0          0          0          0          0
  probing          :       0.23       0.00      1          0          0          0          0          0          0          0          0          0
  pseudoobj        :       0.00       0.00      1          0          0          0          1          0          0          0          0          0
  symmetry         :       0.00       0.00      0          0          0          0          0          0          0          0          0          0
  vbounds          :       0.00       0.00      1          0          0          0          0          0          0          0          0          0
  varbound         :       0.00       0.00      2          0          0          0          0          0          0          0          0          0
  and              :       0.00       0.01      2          0          0          0          0          0          0          0          0          0
  linear           :       0.01       0.00      2          0          0          0          0          0          0          0          0          0
  logicor          :       0.00       0.00      0          0          0          0          0          0          0          0          0          0
  bounddisjunction :       0.00       0.00      0          0          0          0          0          0          0          0          0          0
  nonlinear        :       0.05       0.01      5          0          0          0          1          0          0       1533          0          0
  benders          :       0.00       0.00      0          0          0          0          0          0          0          0          0          0
  components       :       0.00       0.00      1          0          0          0          0          0          0          0          0          0
  root node        :          -          -      -          0          -          -         27          -          -          -          -          -
Constraints        :     Number  MaxNumber  #Separate #Propagate    #EnfoLP    #EnfoRelax  #EnfoPS    #Check   #ResProp    Cutoffs    DomReds       Cuts    Applied      Conss   Children
  benderslp        :          0          0          0          0      67370          0          0       2215          0          0          0          0          0          0          0
  integral         :          0          0          0          0      67370          0          0       2215          0          0       3948          0          0       2050     131796
  varbound         :          1          1         86      15301          0          0          0         27          0          0        605          0          0          0          0
  and              :       1530       1530      73897     485795          8          0          0         27     237736          5    2358194        274        233          0          0
  linear           :          3+         5         86     485793          8          0          0         25          7          0      38767          0          0          0          0
  logicor          :          0+      6093          0     130480          0          0          0          0        381        503         52          0          0          0          0
  bounddisjunction :          0+        17          0       1371          0          0          0          0          0          0          0          0          0          0          0
  benders          :          0          0          0          0          8          0          0         23          0          0          0          0          0          0          0
  countsols        :          0          0          0          0          8          0          0         23          0          0          0          0          0          0          0
  components       :          0          0          0          0          0          0          0          0          0          0          0          0          0          0          0
Constraint Timings :  TotalTime  SetupTime   Separate  Propagate     EnfoLP     EnfoPS     EnfoRelax   Check    ResProp    SB-Prop
  benderslp        :       0.04       0.00       0.00       0.00       0.04       0.00       0.00       0.00       0.00       0.00
  integral         :      54.11       0.00       0.00       0.00      54.10       0.00       0.00       0.01       0.00       0.00
  varbound         :       0.02       0.00       0.00       0.02       0.00       0.00       0.00       0.00       0.00       0.00
  and              :      65.36       0.01      39.13      25.40       0.00       0.00       0.00       0.01       0.22       0.59
  linear           :       0.84       0.00       0.02       0.81       0.00       0.00       0.00       0.00       0.00       0.01
  logicor          :       8.08       0.00       0.00       8.06       0.00       0.00       0.00       0.00       0.00       0.02
  bounddisjunction :       0.00       0.00       0.00       0.00       0.00       0.00       0.00       0.00       0.00       0.00
  benders          :       0.00       0.00       0.00       0.00       0.00       0.00       0.00       0.00       0.00       0.00
  countsols        :       0.00       0.00       0.00       0.00       0.00       0.00       0.00       0.00       0.00       0.00
  components       :       0.15       0.00       0.00       0.15       0.00       0.00       0.00       0.00       0.00       0.00
Propagators        : #Propagate   #ResProp    Cutoffs    DomReds
  dualfix          :          2          0          0          0
  genvbounds       :          0          0          0          0
  nlobbt           :          0          0          0          0
  obbt             :          0          0          0          0
  probing          :          0          0          0          0
  pseudoobj        :     313281          0          0         28
  redcost          :     155886          0          0     144258
  rootredcost      :         14          0          0          0
  symmetry         :          0          0          0          0
  vbounds          :      46100          0          0          0
Propagator Timings :  TotalTime  SetupTime   Presolve  Propagate    ResProp    SB-Prop
  dualfix          :       0.00       0.00       0.00       0.00       0.00       0.00
  genvbounds       :       0.37       0.00       0.00       0.36       0.00       0.01
  nlobbt           :       0.00       0.00       0.00       0.00       0.00       0.00
  obbt             :       0.00       0.00       0.00       0.00       0.00       0.00
  probing          :       0.23       0.00       0.23       0.00       0.00       0.00
  pseudoobj        :       0.81       0.00       0.00       0.81       0.00       0.00
  redcost          :       9.06       0.00       0.00       9.04       0.00       0.02
  rootredcost      :       0.41       0.00       0.00       0.41       0.00       0.00
  symmetry         :       0.23       0.00       0.00       0.22       0.00       0.01
  vbounds          :       0.37       0.00       0.00       0.36       0.00       0.01
Conflict Analysis  :       Time      Calls    Success    DomReds  Conflicts   Literals    Reconvs ReconvLits   Dualrays   Nonzeros   LP Iters   (pool size: [10000,10000])
  propagation      :       0.01        508        400          -        454       44.4          0        0.0          -          -          -
  infeasible LP    :       0.00          0          0          -          0        0.0          0        0.0          2       62.5          0
  bound exceed. LP :      13.43       7853       6444          -      83526       63.5          1       38.0          0        0.0      28450
  strong branching :       0.00          0          0          -          0        0.0          0        0.0          -          -          0
  pseudo solution  :       0.00          0          0          -          0        0.0          0        0.0          -          -          -
  applied globally :       0.29          -          -          0      23284       68.0          -          -          2          -          -
  applied locally  :          -          -          -          0          0        0.0          -          -          0          -          -
Separators         :   ExecTime  SetupTime      Calls  RootCalls    Cutoffs    DomReds  FoundCuts ViaPoolAdd  DirectAdd    Applied ViaPoolApp  DirectApp      Conss
  cut pool         :       4.13          -      17766        110          -          -      37101     709645          -          -          -          -          -    (maximal pool size:       2260)
  aggregation      :      11.36       0.00       5037         86          0          0         59        233          0         11         11          0          0
  > cmir           :          -          -          -          -          -          -          -        233          0         11         11          0          -
  > flowcover      :          -          -          -          -          -          -          -          0          0          0          0          0          -
  > knapsackcover  :          -          -          -          -          -          -          -          0          0          0          0          0          -
  cgmip            :       0.00       0.00          0          0          0          0          0          0          0          0          0          0          0
  clique           :       0.00       0.00         86         86          0          0          0          0          0          0          0          0          0
  closecuts        :       0.00       0.00          0          0          0          0          0          0          0          0          0          0          0
  convexproj       :       0.00       0.00          0          0          0          0          0          0          0          0          0          0          0
  disjunctive      :       0.00       0.00          0          0          0          0          0          0          0          0          0          0          0
  eccuts           :       0.00       0.00          0          0          0          0          0          0          0          0          0          0          0
  gauge            :       0.00       0.00          0          0          0          0          0          0          0          0          0          0          0
  gomory           :       0.00       0.00          0          0          0          0          0          0          0          0          0          0          0
  > gomorymi       :          -          -          -          -          -          -          -          0          0          0          0          0          -
  > strongcg       :          -          -          -          -          -          -          -          0          0          0          0          0          -
  impliedbounds    :       0.29       0.00       5037         86          0          0          0          0          0          0          0          0          0
  interlattice     :       0.31       0.00         60         60          0          0         60          0         60         60          0         60          0
  interminor       :       0.00       0.00          0          0          0          0          0          0          0          0          0          0          0
  intersub         :       0.00       0.00          0          0          0          0          0          0          0          0          0          0          0
  intobj           :       0.00       0.00          0          0          0          0          0          0          0          0          0          0          0
  mcf              :       0.01       0.00          1          1          0          0          0          0          0          0          0          0          0
  minor            :       0.00       0.00          0          0          0          0          0          0          0          0          0          0          0
  mixing           :       0.01       0.00       5039         86          0          0          0          0          0          0          0          0          0
  oddcycle         :       0.00       0.00          0          0          0          0          0          0          0          0          0          0          0
  rapidlearning    :       0.00       0.00          0          0          0          0          0          0          0          0          0          0          0
  rlt              :       0.00       0.00         10         10          0          0          0          0          0          0          0          0          0
  zerohalf         :      38.64       0.00       4502         20          0          0      37042     709412          0     109665     109665          0          0
Cutselectors       :   ExecTime  SetupTime      Calls  RootCalls   Selected     Forced   Filtered  RootSelec   RootForc   RootFilt 
  hybrid           :       0.68       0.00       8963         85     109969          0     600010        233          0          9
Pricers            :   ExecTime  SetupTime      Calls       Vars
  problem variables:       0.00          -          0          0
Branching Rules    :   ExecTime  SetupTime   BranchLP  BranchExt   BranchPS    Cutoffs    DomReds       Cuts      Conss   Children
  allfullstrong    :       0.00       0.00          0          0          0          0          0          0          0          0
  cloud            :       0.00       0.00          0          0          0          0          0          0          0          0
  distribution     :       0.00       0.00          0          0          0          0          0          0          0          0
  fullstrong       :       0.00       0.00          0          0          0          0          0          0          0          0
  inference        :       0.00       0.00          0          0          0          0          0          0          0          0
  leastinf         :       0.00       0.00          0          0          0          0          0          0          0          0
  lookahead        :       0.00       0.00          0          0          0          0          0          0          0          0
  mostinf          :       0.00       0.00          0          0          0          0          0          0          0          0
  multaggr         :       0.00       0.00          0          0          0          0          0          0          0          0
  nodereopt        :       0.00       0.00          0          0          0          0          0          0          0          0
  pscost           :       0.00       0.00          0          0          0          0          0          0          0          0
  random           :       0.00       0.00          0          0          0          0          0          0          0          0
  relpscost        :      53.77       0.00      67362          0          0          0       3948          0       2053     131796
  vanillafullstrong:       0.00       0.00          0          0          0          0          0          0          0          0
Primal Heuristics  :   ExecTime  SetupTime      Calls      Found       Best
  LP solutions     :       0.02          -          -          8          8
  relax solutions  :       0.00          -          -          0          0
  pseudo solutions :       0.00          -          -          0          0
  strong branching :       0.04          -          -          0          0
  actconsdiving    :       0.00       0.00          0          0          0
  adaptivediving   :       3.34       0.00         38          0          0
  alns             :       1.75       0.00         14          1          1
  bound            :       0.00       0.00          0          0          0
  clique           :       0.01       0.00          1          0          0
  coefdiving       :       0.00       0.00          0          0          0
  completesol      :       0.00       0.00          0          0          0
  conflictdiving   :      34.59       0.00        415          0          0
  crossover        :       0.42       0.00          3          0          0
  dins             :       0.00       0.00          0          0          0
  distributiondivin:      55.51       0.00        416          0          0
  dps              :       0.00       0.00          0          0          0
  dualval          :       0.00       0.00          0          0          0
  farkasdiving     :       0.01       0.00          0          0          0
  feaspump         :       0.00       0.00          0          0          0
  fixandinfer      :       0.00       0.00          0          0          0
  fracdiving       :      38.92       0.00        416          0          0
  gins             :       0.17       0.00          0          0          0
  guideddiving     :      33.21       0.00        416          1          1
  indicator        :       0.06       0.00          0          0          0
  indicatordiving  :       0.00       0.00          0          0          0
  intdiving        :       0.00       0.00          0          0          0
  intshifting      :       0.26       0.00         39          0          0
  linesearchdiving :      33.00       0.00        416          0          0
  localbranching   :       0.00       0.00          0          0          0
  locks            :       0.01       0.00          1          0          0
  lpface           :       0.07       0.00          0          0          0
  mpec             :      91.68       0.00         11          0          0
  multistart       :       0.00       0.00          0          0          0
  mutation         :       0.00       0.00          0          0          0
  nlpdiving        :      24.89       0.00          7          2          2
  objpscostdiving  :      32.08       0.00         45          2          0
  octane           :       0.00       0.00          0          0          0
  ofins            :       0.11       0.00          0          0          0
  oneopt           :       0.07       0.00         25          0          0
  padm             :       0.00       0.00          0          0          0
  proximity        :       0.00       0.00          0          0          0
  pscostdiving     :      42.10       0.00        416          0          0
  randrounding     :       0.54       0.00       2188          0          0
  rens             :       0.00       0.00          0          0          0
  reoptsols        :       0.00       0.00          0          0          0
  repair           :       0.00       0.00          0          0          0
  rins             :       0.47       0.00          3          1          1
  rootsoldiving    :      34.93       0.00         37          0          0
  rounding         :       1.04       0.00       3804          0          0
  shiftandpropagate:       0.00       0.00          0          0          0
  shifting         :      54.73       0.00      12807         10         10
  simplerounding   :       0.09       0.00          0          0          0
  subnlp           :     118.44       0.00          0          0          0
  trivial          :       0.00       0.00          2          2          2
  trivialnegation  :       0.00       0.00          0          0          0
  trustregion      :       0.00       0.00          0          0          0
  trysol           :       0.12       0.00          0          0          0
  twoopt           :       0.00       0.00          0          0          0
  undercover       :       0.81       0.00          1          1          1
  vbounds          :       0.00       0.00          0          0          0
  veclendiving     :      34.99       0.00        416          0          0
  zeroobj          :       0.00       0.00          0          0          0
  zirounding       :       0.50       0.00       1000          0          0
  other solutions  :          -          -          -          0          -
Diving (single)    :      Calls      Nodes   LP Iters Backtracks  Conflicts   MinDepth   MaxDepth   AvgDepth  RoundSols  NLeafSols  MinSolDpt  MaxSolDpt  AvgSolDpt
  actconsdiving    :          0          -          -          -          -          -          -          -          -          -          -          -          -
  coefdiving       :          0          -          -          -          -          -          -          -          -          -          -          -          -
  conflictdiving   :        415      12472     357044        498      14787         37         66       47.8          0          -          -          -          -
  distributiondivin:        416       9855     419692        476       6515         34         53       40.6          0          -          -          -          -
  farkasdiving     :          0          -          -          -          -          -          -          -          -          -          -          -          -
  fracdiving       :        416      41132     373539        389       4508         44        451      116.1          0          -          -          -          -
  guideddiving     :        416      32923     331498        232       4466         45        383       96.7          0          1         82         82       82.0
  indicatordiving  :          0          -          -          -          -          -          -          -          -          -          -          -          -
  linesearchdiving :        416      12578     349030        479      14704         34         70       47.3          0          -          -          -          -
  pscostdiving     :        416      12696     432816        428      11837         37         60       47.3          0          -          -          -          -
  veclendiving     :        416      11374     359206        437      17229         37         70       44.4          0          -          -          -          -
Diving (adaptive)  :      Calls      Nodes   LP Iters Backtracks  Conflicts   MinDepth   MaxDepth   AvgDepth  RoundSols  NLeafSols  MinSolDpt  MaxSolDpt  AvgSolDpt
  actconsdiving    :         10        216       8561          7        130         35         54       42.7          0          -          -          -          -
  coefdiving       :         14        401      12716         16        554         37         59       44.9          0          -          -          -          -
  conflictdiving   :          0          -          -          -          -          -          -          -          -          -          -          -          -
  distributiondivin:          0          -          -          -          -          -          -          -          -          -          -          -          -
  farkasdiving     :          0          -          -          -          -          -          -          -          -          -          -          -          -
  fracdiving       :          2        164       1746          2         27         94        105       99.5          0          -          -          -          -
  guideddiving     :          4        375       3231          2         45         81        165      109.2          0          -          -          -          -
  indicatordiving  :          0          -          -          -          -          -          -          -          -          -          -          -          -
  linesearchdiving :          2         56       1983          2         90         40         47       43.5          0          -          -          -          -
  pscostdiving     :          0          -          -          -          -          -          -          -          -          -          -          -          -
  veclendiving     :          6        174       5159          7        317         42         55       45.7          0          -          -          -          -
Neighborhoods      :      Calls  SetupTime  SolveTime SolveNodes       Sols       Best       Exp3  EpsGreedy        UCB TgtFixRate  Opt  Inf Node Stal  Sol  Usr Othr Actv
  rens             :          2       0.14       0.02          0          0          0    0.00000   -1.00000    0.54655      0.550    0    2    0    0    0    0    0    1
  rins             :          2       0.01       0.01          0          0          0    0.00000   -1.00000    0.29655      0.700    0    1    0    0    0    0    1    1
  mutation         :          3       0.21       0.78        530          1          1    0.00000   -1.00000    0.50435      0.662    1    1    0    1    0    0    0    1
  localbranching   :          1       0.01       0.01          1          0          0    0.00000   -1.00000    0.56482      0.700    0    1    0    0    0    0    0    1
  crossover        :          2       0.17       0.01          1          0          0    0.00000   -1.00000    0.54505      0.550    0    2    0    0    0    0    0    1
  proximity        :          1       0.08       0.01          1          0          0    0.00000   -1.00000    0.56482      0.700    0    1    0    0    0    0    0    1
  zeroobjective    :          2       0.13       0.03         22          0          0    0.00000   -1.00000    0.51633      0.550    0    2    0    0    0    0    0    1
  dins             :          1       0.02       0.00          1          0          0    0.00000   -1.00000    0.56482      0.700    0    1    0    0    0    0    0    1
  trustregion      :          0       0.00       0.00          0          0          0    0.00000   -1.00000    1.00000      0.900    0    0    0    0    0    0    0    0
Expressions        :   #IntEval  IntEvalTi   #RevProp  RevPropTi    DomReds    Cutoffs  #Estimate  EstimTime  Branching  #Simplify SimplifyTi Simplified
  pow              :          0       0.00          0       0.00          0          0          0       0.00          0          0       0.00          0
  prod             :       6320       0.00          0       0.00          0          0          0       0.00          0       4690       0.00          0
  sum              :          8       0.00          2       0.00          0          0          0       0.00          0          3       0.03          2
  var              :       5485       0.00          0       0.00          0          0          0       0.00          0      11154       0.00          0
  varidx           :          0       0.00          0       0.00          0          0          0       0.00          0          0       0.00          0
LP                 :       Time      Calls Iterations  Iter/call   Iter/sec  Time-0-It Calls-0-It    ItLimit
  primal LP        :     109.53       9195          0       0.00       0.00     109.50       9195
  dual LP          :    2538.00     134712   12304843     100.44    4848.24       4.99      12203
  lex dual LP      :       0.00          0          0       0.00          -
  barrier LP       :       0.00          0          0       0.00          -       0.00          0
  resolve instable :       0.00          0          0       0.00          -
  diving/probing LP:     291.12      11636    3029202     260.33   10405.34
  strong branching :      26.52       3045     251678      82.65    9490.12          -          -         22
    (at root node) :          -         19       3871     203.74          -
  conflict analysis:       4.60       2866      28450       9.93    6184.78
NLP relaxation     :
  solve time       :      22.40 (14 calls)
  convexity        :  nonconvex (4 linear rows, 0 convex ineq., 0 nonconvex ineq., 1530 nonlinear eq. or two-sided ineq.)
NLP Solvers        :  #Problems  ProblemTi    #Solves  SolveTime      #Iter  Time/Iter      #Okay #TimeLimit #IterLimit #LObjLimit #Interrupt  #NumError #EvalError  #OutOfMem #LicenseEr #OtherTerm   #GlobOpt    #LocOpt  #Feasible #LocInfeas #GlobInfea #Unbounded   #Unknown
  ipopt            :         12       4.92         47     114.13       2321       0.05         45          0          2          0          0          0          0          0          0          0          0          6          2         33          0          0          6
B&B Tree           :
  number of runs   :          1
  nodes            :     112110 (65898 internal, 46212 leaves)
  feasible leaves  :          8
  infeas. leaves   :         27
  objective leaves :      46176
  nodes (total)    :     112110 (65898 internal, 46212 leaves)
  nodes left       :      19681
  max depth        :         56
  max depth (total):         56
  backtracks       :      23900 (21.3%)
  early backtracks :          0 (0.0%)
  nodes exc. ref.  :          0 (0.0%)
  delayed cutoffs  :          1
  repropagations   :       1161 (159 domain reductions, 0 cutoffs)
  avg switch length:       4.42
  switching time   :     132.53
Estim. Tree Size   :     224232
Estimation Tree    : 131797 nodes (112116 visited, 65898 internal, 46218 leaves, 19681 open), weight: 0.0000 completed 0.1432
Estimations        :      estim      value      trend resolution     smooth
  wbe              : 23340288300          -          -          -          -
  tree-profile     :         -1          -          -          -          -
  gap              :    1491606    0.77699    0.00002         64    1446340
  tree-weight      :     224232    0.00000    0.00000         64     224066
  leaf-frequency   :     224232    0.41223   -0.00001         64    1983220
  ssg              :    4070044    0.77381   -0.00002         64    4151312
  open-nodes       :     224232 19681.00000   19.84140         64     224066
Root Node          :
  First LP value   : -1.00000000000000e+00
  First LP Iters   :       1020 (12750.00 Iter/sec)
  First LP Time    :       0.08
  Final Dual Bound : -9.21143196202534e-01
  Final Root Iters :       2333
  Root LP Estimate : -4.71751858787049e-01
Solution           :
  Solutions found  :         28 (26 improvements)
  First Solution   : +1.00000000000000e+05   (in run 1, after 0 nodes, 0.01 seconds, depth 0, found by <trivial>)
  Gap First Sol.   :   infinite
  Gap Last Sol.    :      30.46 %
  Primal Bound     : -5.76582278481012e-01   (in run 1, after 79316 nodes, 2498.86 seconds, depth 20, found by <alns>)
  Dual Bound       : -7.42072784810128e-01
  Gap              :      28.70 %
Integrals          :      Total       Avg%
  primal-dual      :   92465.89      25.68
  primal-ref       :          -          - (not evaluated)
  dual-ref         :          -          - (not evaluated)
